p cnf 8 25
5 -8 3 -1 0
-3 0
-3 7 -7 5 -1 0
-6 5 0
5 -4 0
2 -8 -2 0
-3 -2 -7 8 -7 0
4 8 0
-4 -6 0
-2 1 0
-3 4 8 0
-2 0
4 -5 0
-4 -7 -3 -5 6 -4 0
-3 7 5 4 2 3 0
7 2 -1 -7 3 5 0
6 0
7 8 0
7 0
7 -7 7 6 7 -1 0
3 5 -3 -7 5 3 0
-5 -3 3 4 -6 0
8 8 4 0
7 0
1 -1 -5 -2 3 2 0